Route #1: 1 29 30 33 49 61 6 1
Route #2: 1 14 56 45 17 41 32 47 1
Route #3: 1 16 48 10 31 9 5 1
Route #4: 1 58 54 39 24 12 18 25 44 13 1
Route #5: 1 19 51 2 28 21 37 8 1
Route #6: 1 63 3 22 52 20 53 40 36 1
Route #7: 1 38 11 43 62 23 35 26 1
Route #8: 1 42 55 59 15 27 7 34 1
Route #9: 1 4 50 57 60 1
Route #10: 1 46 1
cost: 1663
